#######################################
### Exact MIP solver for the HHCRSP ###
#######################################
-- Instance file: new-instances/HHCRSP_200_40_37_1.6_C_C.txt
-- Max threads: 4
-- Time limit: 999999 seconds
-- Use initial solution: No
Trivial flow violations prevented generating 347607 variables.
Version identifier: 20.1.0.0 | 2020-11-10 | 9bedb6d68
CPXPARAM_Threads                                 4
CPXPARAM_TimeLimit                               999999
Parallel mode: deterministic, using up to 4 threads for concurrent optimization:
 * Starting dual Simplex on 1 thread...
 * Starting Barrier on 3 threads...
Tried aggregator 1 time.
LP Presolve eliminated 18852 rows and 3730 columns.
Reduced LP has 312862 rows, 298119 columns, and 5042750 nonzeros.
Presolve time = 9.53 sec. (1186.89 ticks)
Symmetry aggregator did 424928 additional substitutions.

Iteration log . . .
Iteration:     1   Dual objective     =             0.000000
Iteration:   929   Dual objective     =           181.166667

Dual crossover.
  Dual:  Fixing 627 variables.
      626 DMoves:  Infeasibility  2.99760219e-13  Objective  1.81333333e+02
        0 DMoves:  Infeasibility  1.88071783e-13  Objective  1.81333333e+02
  Dual:  Pushed 20, exchanged 607.
  Primal:  Fixing 381 variables.
      380 PMoves:  Infeasibility  1.11022302e-16  Objective  1.81333333e+02
        0 PMoves:  Infeasibility  7.21644966e-16  Objective  1.81333333e+02
  Primal:  Pushed 283, exchanged 98.

Dual simplex solved model.


Solution status from MIP model:
-- Processing time: 16.086 sec.
-- Memory used: 354.61 MB
-- Best bound: inf
-- Obj value: 181.333
-- Gap: inf%
-- Total distance: 544
-- Total tardiness: 0
-- Largest tardiness: 0
